p cnf 24 40
1 0
-5 2 0
-2 5 0
-6 2 0
-2 6 0
-7 2 0
-8 2 0
-9 3 0
-3 9 0
-10 3 0
-11 4 0
-4 11 0
-12 4 0
-13 4 0
-4 13 0
-14 4 0
-15 5 0
-16 5 0
-17 6 0
-18 6 0
-19 9 0
-20 9 0
-21 11 0
-22 11 0
-23 13 0
-24 13 0
-7 4 0
-22 24 0
-5 15 16 0
-15 -16 0
-6 17 18 0
-17 -18 0
-9 19 20 0
-19 -20 0
-11 21 22 0
-21 -22 0
-13 23 24 0
-23 -24 0
-15 -17 0
-1 2 3 4 0
